0000000000000000
0000000000000000
0000000000000000
0000000000000000
0000000000000000
0000000000000000
0000000000000000
0000000000000000
0000000000000000
0000000000000000
0111100000000000
0000100000000000
0000110000000000
0101100000000000
0000000000000000
0000000000000000
